100
300
30
0 0
44 6
84 86
83 91
12 17
34 37
19 4
95 97
32 27
19 81
56 77
8 98
73 3
39 11
9 45
29 63
6 37
61 85
100 63
28 4
32 36
57 37
55 58
53 11
29 91
99 76
17 48
88 48
57 27
34 29
13 14
0 0
70
30
50
30
40
50
30
50
50
40
70
30
40
60
70
70
30
50
30
40
50
30
50
50
40
70
30
40
60
70
